2025-10-18 23:48:38,972 - INFO - 📌 第一个 epoch：默认所有模块使用 checkpoint
2025-10-18 23:48:40,144 - INFO - Epoch 1 completed in 1.175857 seconds
2025-10-18 23:48:40,623 - INFO - torch.cuda.max_memory_reserved() : 7.45703125
2025-10-18 23:48:41,239 - INFO - 
[🔁 拟合反向传播时间模型]
2025-10-18 23:48:41,240 - INFO - 总反向传播时间: 0.610750s
2025-10-18 23:48:41,240 - INFO - 拟合模型: backward_total ≈ 2 × (A + B) + b
2025-10-18 23:48:41,240 - INFO - A = 0.949957, B = 0.017775, b = -0.356981s
2025-10-18 23:48:41,265 - INFO - Set parameter LicenseID to value 2706656
2025-10-18 23:48:41,271 - INFO - Set parameter LogToConsole to value 1
2025-10-18 23:48:41,272 - INFO - Set parameter LogFile to value ""
2025-10-18 23:48:41,272 - INFO - Set parameter Threads to value 12
2025-10-18 23:48:41,272 - INFO - Set parameter TimeLimit to value 3600
2025-10-18 23:48:41,272 - INFO - Set parameter OptimalityTol to value 0.0001
2025-10-18 23:48:41,272 - INFO - Set parameter IntFeasTol to value 1e-05
2025-10-18 23:48:41,272 - INFO - Set parameter StartNodeLimit to value 10000000
2025-10-18 23:48:41,328 - INFO - Set parameter TimeLimit to value 3600
2025-10-18 23:48:41,328 - INFO - 
2025-10-18 23:48:41,328 - INFO - 
2025-10-18 23:48:41,328 - INFO - Restarting solve
2025-10-18 23:48:41,328 - INFO - 
2025-10-18 23:48:41,328 - INFO - 
2025-10-18 23:48:41,329 - INFO - Gurobi Optimizer version 12.0.3 build v12.0.3rc0 (linux64 - "Ubuntu 20.04.6 LTS")
2025-10-18 23:48:41,330 - INFO - 
2025-10-18 23:48:41,330 - INFO - CPU model: Intel(R) Xeon(R) Platinum 8260 CPU @ 2.40GHz, instruction set [SSE2|AVX|AVX2|AVX512]
2025-10-18 23:48:41,330 - INFO - Thread count: 48 physical cores, 96 logical processors, using up to 12 threads
2025-10-18 23:48:41,330 - INFO - 
2025-10-18 23:48:41,330 - INFO - Non-default parameters:
2025-10-18 23:48:41,330 - INFO - TimeLimit  3600
2025-10-18 23:48:41,330 - INFO - OptimalityTol  0.0001
2025-10-18 23:48:41,330 - INFO - StartNodeLimit  10000000
2025-10-18 23:48:41,330 - INFO - Threads  12
2025-10-18 23:48:41,330 - INFO - 
2025-10-18 23:48:41,330 - INFO - Optimize a model with 5603 rows, 3584 columns and 15200 nonzeros
2025-10-18 23:48:41,330 - INFO - Model fingerprint: 0x6e0d7ee3
2025-10-18 23:48:41,330 - INFO - Variable types: 1024 continuous, 2560 integer (2560 binary)
2025-10-18 23:48:41,330 - INFO - Coefficient statistics:
2025-10-18 23:48:41,330 - INFO -   Matrix range     [1e+00, 2e+15]
2025-10-18 23:48:41,330 - INFO -   Objective range  [4e+04, 2e+06]
2025-10-18 23:48:41,330 - INFO -   Bounds range     [1e+00, 1e+16]
2025-10-18 23:48:41,330 - INFO -   RHS range        [1e+00, 1e+16]
2025-10-18 23:48:41,330 - INFO - Warning: Model contains large matrix coefficient range
2025-10-18 23:48:41,331 - INFO - Warning: Model contains large rhs
2025-10-18 23:48:41,331 - INFO - Warning: Model contains large bounds
2025-10-18 23:48:41,331 - INFO -          Consider reformulating model or setting NumericFocus parameter
2025-10-18 23:48:41,331 - INFO -          to avoid numerical issues.
2025-10-18 23:48:41,345 - INFO - Presolve removed 4283 rows and 1964 columns
2025-10-18 23:48:41,345 - INFO - Presolve time: 0.01s
2025-10-18 23:48:41,345 - INFO - Presolved: 1320 rows, 1620 columns, 4514 nonzeros
2025-10-18 23:48:41,346 - INFO - Variable types: 0 continuous, 1620 integer (1095 binary)
2025-10-18 23:48:41,356 - INFO - 
2025-10-18 23:48:41,357 - INFO - Root relaxation: objective 2.577796e+07, 425 iterations, 0.00 seconds (0.00 work units)
2025-10-18 23:48:41,366 - INFO - 
2025-10-18 23:48:41,367 - INFO -     Nodes    |    Current Node    |     Objective Bounds      |     Work
2025-10-18 23:48:41,367 - INFO -  Expl Unexpl |  Obj  Depth IntInf | Incumbent    BestBd   Gap | It/Node Time
2025-10-18 23:48:41,367 - INFO - 
2025-10-18 23:48:41,367 - INFO -      0     0 2.5778e+07    0   96          - 2.5778e+07      -     -    0s
2025-10-18 23:48:41,400 - INFO - H    0     0                    3.826304e+07 2.5778e+07  32.6%     -    0s
2025-10-18 23:48:41,402 - INFO -      0     0 2.5778e+07    0   55 3.8263e+07 2.5778e+07  32.6%     -    0s
2025-10-18 23:48:41,427 - INFO -      0     0 2.5779e+07    0  230 3.8263e+07 2.5779e+07  32.6%     -    0s
2025-10-18 23:48:41,441 - INFO -      0     0 2.5780e+07    0  146 3.8263e+07 2.5780e+07  32.6%     -    0s
2025-10-18 23:48:41,449 - INFO -      0     0 2.5790e+07    0  245 3.8263e+07 2.5790e+07  32.6%     -    0s
2025-10-18 23:48:41,456 - INFO -      0     0 2.5790e+07    0  241 3.8263e+07 2.5790e+07  32.6%     -    0s
2025-10-18 23:48:41,470 - INFO -      0     0 2.5790e+07    0  241 3.8263e+07 2.5790e+07  32.6%     -    0s
2025-10-18 23:48:41,489 - INFO -      0     2 2.5790e+07    0  241 3.8263e+07 2.5790e+07  32.6%     -    0s
2025-10-18 23:48:41,546 - INFO - *  221   264              19    2.585239e+07 2.5790e+07  0.24%   6.1    0s
2025-10-18 23:48:41,546 - INFO - *  259   264              18    2.582273e+07 2.5790e+07  0.13%   5.8    0s
2025-10-18 23:48:41,596 - INFO - *  778   147              51    2.579486e+07 2.5795e+07  0.00%   3.7    0s
2025-10-18 23:48:41,596 - INFO - 
2025-10-18 23:48:41,597 - INFO - Cutting planes:
2025-10-18 23:48:41,597 - INFO -   Cover: 20
2025-10-18 23:48:41,597 - INFO -   GUB cover: 2
2025-10-18 23:48:41,597 - INFO - 
2025-10-18 23:48:41,597 - INFO - Explored 855 nodes (3744 simplex iterations) in 0.27 seconds (0.19 work units)
2025-10-18 23:48:41,597 - INFO - Thread count was 12 (of 96 available processors)
2025-10-18 23:48:41,597 - INFO - 
2025-10-18 23:48:41,597 - INFO - Solution count 4: 2.57949e+07 2.58227e+07 2.58524e+07 3.8263e+07 
2025-10-18 23:48:41,597 - INFO - 
2025-10-18 23:48:41,597 - INFO - Optimal solution found (tolerance 1.00e-04)
2025-10-18 23:48:41,597 - INFO - Best objective 2.579486300000e+07, best bound 2.579486300000e+07, gap 0.0000%
2025-10-18 23:48:41,609 - INFO - 规划前的显存GB：12.0
2025-10-18 23:48:41,609 - INFO - 规划后的显存GB：11.26418685913086
2025-10-18 23:48:41,609 - INFO - ✅ 最优策略：[1, 1, 1, 1, 1, 1, 1, 1, 0, 1, 1, 0, 0, 0, 0, 1]
2025-10-18 23:48:41,609 - INFO - 📌 checkpoint 的欧氏长度:, []
2025-10-18 23:48:41,609 - INFO - 📌 checkpoint 的余弦长度:, [119, 478, 597, 717, 837]
2025-10-18 23:48:41,609 - INFO - 💾 最终显存峰值：%.2f MB % 14191.99333190918
2025-10-18 23:48:41,610 - INFO - Epoch 2 completed in 0.986235 seconds
2025-10-18 23:48:41,610 - INFO - torch.cuda.max_memory_reserved() : 7.45703125
2025-10-18 23:48:42,050 - INFO - Epoch 3 completed in 0.440206 seconds
2025-10-18 23:48:42,051 - INFO - 
====================== [第1个 Epoch 收集统计数据] ======================
2025-10-18 23:48:42,051 - INFO - 
🔍 EUCLIDEAN modules:
2025-10-18 23:48:42,051 - INFO - [Shapelet 119] forward_avg=0.017739s over 2 calls | peak=574.44MB | final=0.00MB
2025-10-18 23:48:42,051 - INFO - [Shapelet 238] forward_avg=0.010446s over 2 calls | peak=1015.43MB | final=0.00MB
2025-10-18 23:48:42,051 - INFO - [Shapelet 358] forward_avg=0.016551s over 2 calls | peak=1333.82MB | final=0.00MB
2025-10-18 23:48:42,051 - INFO - [Shapelet 478] forward_avg=0.018946s over 2 calls | peak=1527.39MB | final=0.00MB
2025-10-18 23:48:42,051 - INFO - [Shapelet 597] forward_avg=0.018528s over 2 calls | peak=1593.80MB | final=0.00MB
2025-10-18 23:48:42,051 - INFO - [Shapelet 717] forward_avg=0.016096s over 2 calls | peak=1532.89MB | final=0.00MB
2025-10-18 23:48:42,052 - INFO - [Shapelet 837] forward_avg=0.014150s over 2 calls | peak=1346.26MB | final=0.00MB
2025-10-18 23:48:42,052 - INFO - [Shapelet 957] forward_avg=0.010643s over 2 calls | peak=1033.37MB | final=0.00MB
2025-10-18 23:48:42,052 - INFO - 
🔍 COSINE modules:
2025-10-18 23:48:42,052 - INFO - [Shapelet 119] forward_avg=0.001865s over 2 calls | peak=377.76MB | final=0.00MB
2025-10-18 23:48:42,052 - INFO - [Shapelet 238] forward_avg=0.003026s over 2 calls | peak=670.78MB | final=0.00MB
2025-10-18 23:48:42,052 - INFO - [Shapelet 358] forward_avg=0.005026s over 2 calls | peak=882.25MB | final=0.00MB
2025-10-18 23:48:42,052 - INFO - [Shapelet 478] forward_avg=0.007123s over 2 calls | peak=1010.33MB | final=0.00MB
2025-10-18 23:48:42,052 - INFO - [Shapelet 597] forward_avg=0.006883s over 2 calls | peak=1052.88MB | final=0.00MB
2025-10-18 23:48:42,052 - INFO - [Shapelet 717] forward_avg=0.004356s over 2 calls | peak=1012.70MB | final=0.00MB
2025-10-18 23:48:42,053 - INFO - [Shapelet 837] forward_avg=0.003891s over 2 calls | peak=885.75MB | final=0.00MB
2025-10-18 23:48:42,053 - INFO - [Shapelet 957] forward_avg=0.003057s over 2 calls | peak=676.20MB | final=0.00MB
2025-10-18 23:48:42,053 - INFO - 
🔍 CROSS modules:
2025-10-18 23:48:42,053 - INFO - [Shapelet 119] forward_avg=0.000381s over 2 calls
2025-10-18 23:48:42,053 - INFO - [Shapelet 238] forward_avg=0.000460s over 2 calls
2025-10-18 23:48:42,053 - INFO - [Shapelet 358] forward_avg=0.000579s over 2 calls
2025-10-18 23:48:42,053 - INFO - [Shapelet 478] forward_avg=0.000724s over 2 calls
2025-10-18 23:48:42,053 - INFO - [Shapelet 597] forward_avg=0.000606s over 2 calls
2025-10-18 23:48:42,053 - INFO - [Shapelet 717] forward_avg=0.000547s over 2 calls
2025-10-18 23:48:42,053 - INFO - [Shapelet 837] forward_avg=0.000604s over 2 calls
2025-10-18 23:48:42,054 - INFO - [Shapelet 957] forward_avg=0.000543s over 2 calls
2025-10-18 23:48:42,054 - INFO - 
💾 模型第一次反向传播阶段的显存峰值（所有模块中的最大值）: 7544.87 MB
2025-10-18 23:48:42,054 - INFO - 
💾 模型初始显存: 9.69 MB
2025-10-18 23:48:42,054 - INFO - =======================================================================

2025-10-18 23:48:42,054 - INFO - torch.cuda.max_memory_reserved() : 11.6171875
2025-10-18 23:48:42,515 - INFO - Epoch 4 completed in 0.459774 seconds
2025-10-18 23:48:42,516 - INFO - torch.cuda.max_memory_reserved() : 11.619140625
2025-10-18 23:48:42,991 - INFO - Epoch 5 completed in 0.473778 seconds
2025-10-18 23:48:42,992 - INFO - torch.cuda.max_memory_reserved() : 11.619140625
2025-10-18 23:48:43,423 - INFO - Epoch 6 completed in 0.429808 seconds
2025-10-18 23:48:43,423 - INFO - torch.cuda.max_memory_reserved() : 11.619140625
2025-10-18 23:48:43,843 - INFO - Epoch 7 completed in 0.417873 seconds
2025-10-18 23:48:43,843 - INFO - torch.cuda.max_memory_reserved() : 11.619140625
2025-10-18 23:48:44,308 - INFO - Epoch 8 completed in 0.462915 seconds
2025-10-18 23:48:44,309 - INFO - torch.cuda.max_memory_reserved() : 11.619140625
2025-10-18 23:48:44,784 - INFO - Epoch 9 completed in 0.473670 seconds
2025-10-18 23:48:44,785 - INFO - torch.cuda.max_memory_reserved() : 11.619140625
2025-10-18 23:48:45,246 - INFO - Epoch 10 completed in 0.460248 seconds
2025-10-18 23:48:45,682 - INFO - torch.cuda.max_memory_reserved() : 11.619140625
2025-10-18 23:48:45,683 - INFO - !!!采用策略后的几个epoch 平均时间:0.4522841274738312
2025-10-18 23:48:45,683 - INFO - 



